\ Model Routes
\ LP format - for model browsing. Use MPS format to capture full model detail.
Maximize
  1533.228206194839 R{0,0} + 2591.679024458567 R{0,1}
   + 2591.679024458567 R{0,2} - 249.2301939667805 R{0,3}
   + 234.7650315204939 R{0,4} + 397.2891588355392 R{0,5}
   + 1740.126354762624 R{0,6} + 1396.606124255096 R{0,7}
   + 1536.351057462121 R{0,8} + 1661.906110363923 R{0,9}
   + 1534.176955798117 R{0,10} + 1196.962243610067 R{0,11}
   + 1637.343482716398 R{0,12} + 1724.571947591702 R{0,13}
   + 1738.943953494942 R{0,14} + 1436.745735927678 R{0,15}
   + 925.3049385197337 R{0,16} + 1351.611019949776 R{0,17}
   + 1862.041818168949 R{0,18} - 256.140831891889 R{1,0}
   + 22.55008804458731 R{1,1} + 1141.439937477706 R{1,2}
   + 1141.439937477706 R{1,3} + 1489.958306711971 R{1,4}
   + 157.4494617865176 R{1,5} + 594.1761715013704 R{1,6}
   + 900.5397972961932 R{1,7} + 643.2266801414322 R{1,8}
   + 731.6556407602774 R{1,9} + 946.2849488355187 R{1,10}
   + 237.3183141492635 R{1,11} + 822.1030185139525 R{1,12}
   + 246.32965578047 R{1,13} + 601.7085482022188 R{1,14}
   + 302.1523681973562 R{1,15} + 537.3612977334257 R{1,16}
   - 278.4443928850388 R{2,0} - 59.13410337035452 R{2,1}
   + 602.7748664658451 R{2,2} + 1100.505917706273 R{2,3}
   + 594.1507212540391 R{2,4} + 819.3752605616277 R{2,5}
   + 144.4600408296817 R{2,6} + 157.4662907254282 R{2,7}
   - 260.2482995389823 R{3,0} + 967.7221973521264 R{3,1}
   + 2038.112677924125 R{3,2} + 2399.115395194246 R{3,3}
   + 1487.76032625811 R{3,4} + 2044.264520543989 R{3,5}
   + 1445.140552465886 R{3,6} + 1759.897386169723 R{3,7}
   + 1254.082686858416 R{3,8} + 1429.3922992238 R{3,9}
   + 1165.980673049751 R{3,10} + 847.4574161138657 R{3,11}
   + 1445.140552465886 R{3,12} + 2051.307708323718 R{3,13}
   + 956.409806518737 R{3,14} + 1587.160202513437 R{3,15}
   + 2140.905084002457 R{3,16} + 1436.298596065656 R{3,17}
   - 242.5208875955131 R{4,0} + 1055.572474837385 R{4,1}
   + 1576.196574514046 R{4,2} + 1104.060487362186 R{4,3}
   + 1873.652581636617 R{4,4} + 1863.931671630754 R{4,5}
   + 780.016554214544 R{4,6} + 1602.655003842812 R{4,7}
   + 984.635385123014 R{4,8} + 1244.176696661047 R{4,9}
   + 704.1207689333902 R{4,10} + 1417.776138456351 R{4,11}
   + 1346.375475755008 R{4,12} + 636.792403292962 R{4,13}
   + 700.1047907287627 R{4,14} + 908.059322661315 R{4,15}
   + 1547.763749121297 R{4,16} + 732.1070786668196 R{4,17}
   + 443.6067588655657 R{4,18} + 1059.683111455707 R{4,19}
   + 498.3468552969102 R{4,20} + 1850.820722117508 R{4,21}
   - 231.9775664337766 R{5,0} + 40.49903117334031 R{5,1}
   + 364.0546919427258 R{5,2} + 968.4441059081439 R{5,3}
   + 840.9278859783676 R{5,4} + 443.7054296742593 R{5,5}
   + 716.0318163249551 R{5,6} + 506.0749600810695 R{5,7}
   + 453.7504619087927 R{5,8} + 150.9147064703113 R{5,9}
   + 517.6660109746167 R{5,10} + 424.7882810228476 R{5,11}
   + 150.9147064703113 R{5,12} + 102.2176442913997 R{5,13}
   + 150.9147064703113 R{5,14} - 231.1436095783099 R{6,0}
   + 352.5135528432641 R{6,1} + 1376.623169502638 R{6,2}
   + 1941.768530245978 R{6,3} + 2174.14376675364 R{6,4}
   + 1443.073492730048 R{6,5} + 1811.823491647179 R{6,6}
   + 1747.518922558844 R{6,7} + 1197.817240958131 R{6,8}
   + 1989.487731643801 R{6,9} + 1115.818061399917 R{6,10}
   + 2027.515348003619 R{6,11} + 2111.690764389236 R{6,12}
   + 992.5440657331628 R{6,13} + 2050.632623309294 R{6,14}
   + 2240.462829770978 R{6,15} + 2252.706833009984 R{6,16}
   + 1237.428723928443 R{6,17} + 1895.773634126735 R{6,18}
   + 1902.576658809933 R{6,19} + 2192.861075631962 R{6,20}
   + 1558.261554865568 R{6,21}
Subject To
 R00: R{0,0} <= 1
 R01: R{0,1} <= 1
 R02: R{0,2} <= 1
 R03: R{0,3} <= 1
 R04: R{0,4} <= 1
 R05: R{0,5} <= 1
 R06: R{0,6} <= 1
 R07: R{0,7} <= 1
 R08: R{0,8} <= 1
 R09: R{0,9} <= 1
 R010: R{0,10} <= 1
 R011: R{0,11} <= 1
 R012: R{0,12} <= 1
 R013: R{0,13} <= 1
 R014: R{0,14} <= 1
 R015: R{0,15} <= 1
 R016: R{0,16} <= 1
 R017: R{0,17} <= 1
 R018: R{0,18} <= 1
 R019: R{1,0} <= 1
 R020: R{1,1} <= 1
 R021: R{1,2} <= 1
 R022: R{1,3} <= 1
 R023: R{1,4} <= 1
 R024: R{1,5} <= 1
 R025: R{1,6} <= 1
 R026: R{1,7} <= 1
 R027: R{1,8} <= 1
 R028: R{1,9} <= 1
 R029: R{1,10} <= 1
 R030: R{1,11} <= 1
 R031: R{1,12} <= 1
 R032: R{1,13} <= 1
 R033: R{1,14} <= 1
 R034: R{1,15} <= 1
 R035: R{1,16} <= 1
 R036: R{2,0} <= 1
 R037: R{2,1} <= 1
 R038: R{2,2} <= 1
 R039: R{2,3} <= 1
 R040: R{2,4} <= 1
 R041: R{2,5} <= 1
 R042: R{2,6} <= 1
 R043: R{2,7} <= 1
 R044: R{3,0} <= 1
 R045: R{3,1} <= 1
 R046: R{3,2} <= 1
 R047: R{3,3} <= 1
 R048: R{3,4} <= 1
 R049: R{3,5} <= 1
 R050: R{3,6} <= 1
 R051: R{3,7} <= 1
 R052: R{3,8} <= 1
 R053: R{3,9} <= 1
 R054: R{3,10} <= 1
 R055: R{3,11} <= 1
 R056: R{3,12} <= 1
 R057: R{3,13} <= 1
 R058: R{3,14} <= 1
 R059: R{3,15} <= 1
 R060: R{3,16} <= 1
 R061: R{3,17} <= 1
 R062: R{4,0} <= 1
 R063: R{4,1} <= 1
 R064: R{4,2} <= 1
 R065: R{4,3} <= 1
 R066: R{4,4} <= 1
 R067: R{4,5} <= 1
 R068: R{4,6} <= 1
 R069: R{4,7} <= 1
 R070: R{4,8} <= 1
 R071: R{4,9} <= 1
 R072: R{4,10} <= 1
 R073: R{4,11} <= 1
 R074: R{4,12} <= 1
 R075: R{4,13} <= 1
 R076: R{4,14} <= 1
 R077: R{4,15} <= 1
 R078: R{4,16} <= 1
 R079: R{4,17} <= 1
 R080: R{4,18} <= 1
 R081: R{4,19} <= 1
 R082: R{4,20} <= 1
 R083: R{4,21} <= 1
 R084: R{5,0} <= 1
 R085: R{5,1} <= 1
 R086: R{5,2} <= 1
 R087: R{5,3} <= 1
 R088: R{5,4} <= 1
 R089: R{5,5} <= 1
 R090: R{5,6} <= 1
 R091: R{5,7} <= 1
 R092: R{5,8} <= 1
 R093: R{5,9} <= 1
 R094: R{5,10} <= 1
 R095: R{5,11} <= 1
 R096: R{5,12} <= 1
 R097: R{5,13} <= 1
 R098: R{5,14} <= 1
 R099: R{6,0} <= 1
 R0100: R{6,1} <= 1
 R0101: R{6,2} <= 1
 R0102: R{6,3} <= 1
 R0103: R{6,4} <= 1
 R0104: R{6,5} <= 1
 R0105: R{6,6} <= 1
 R0106: R{6,7} <= 1
 R0107: R{6,8} <= 1
 R0108: R{6,9} <= 1
 R0109: R{6,10} <= 1
 R0110: R{6,11} <= 1
 R0111: R{6,12} <= 1
 R0112: R{6,13} <= 1
 R0113: R{6,14} <= 1
 R0114: R{6,15} <= 1
 R0115: R{6,16} <= 1
 R0116: R{6,17} <= 1
 R0117: R{6,18} <= 1
 R0118: R{6,19} <= 1
 R0119: R{6,20} <= 1
 R0120: R{6,21} <= 1
 R1_0: R{0,0} + R{0,1} + R{0,2} + R{0,3} + R{0,4} + R{0,5} + R{0,6}
   + R{0,7} + R{0,8} + R{0,9} + R{0,10} + R{0,11} + R{0,12} + R{0,13}
   + R{0,14} + R{0,15} + R{0,16} + R{0,17} + R{0,18} <= 1
 R1_1: R{1,0} + R{1,1} + R{1,2} + R{1,3} + R{1,4} + R{1,5} + R{1,6}
   + R{1,7} + R{1,8} + R{1,9} + R{1,10} + R{1,11} + R{1,12} + R{1,13}
   + R{1,14} + R{1,15} + R{1,16} <= 1
 R1_2: R{2,0} + R{2,1} + R{2,2} + R{2,3} + R{2,4} + R{2,5} + R{2,6}
   + R{2,7} <= 1
 R1_3: R{3,0} + R{3,1} + R{3,2} + R{3,3} + R{3,4} + R{3,5} + R{3,6}
   + R{3,7} + R{3,8} + R{3,9} + R{3,10} + R{3,11} + R{3,12} + R{3,13}
   + R{3,14} + R{3,15} + R{3,16} + R{3,17} <= 1
 R1_4: R{4,0} + R{4,1} + R{4,2} + R{4,3} + R{4,4} + R{4,5} + R{4,6}
   + R{4,7} + R{4,8} + R{4,9} + R{4,10} + R{4,11} + R{4,12} + R{4,13}
   + R{4,14} + R{4,15} + R{4,16} + R{4,17} + R{4,18} + R{4,19} + R{4,20}
   + R{4,21} <= 1
 R1_5: R{5,0} + R{5,1} + R{5,2} + R{5,3} + R{5,4} + R{5,5} + R{5,6}
   + R{5,7} + R{5,8} + R{5,9} + R{5,10} + R{5,11} + R{5,12} + R{5,13}
   + R{5,14} <= 1
 R1_6: R{6,0} + R{6,1} + R{6,2} + R{6,3} + R{6,4} + R{6,5} + R{6,6}
   + R{6,7} + R{6,8} + R{6,9} + R{6,10} + R{6,11} + R{6,12} + R{6,13}
   + R{6,14} + R{6,15} + R{6,16} + R{6,17} + R{6,18} + R{6,19} + R{6,20}
   + R{6,21} <= 1
 R2_0: 7 R{0,0} + 7 R{0,1} + 7 R{0,2} + 7 R{0,6} + 7 R{0,7} + 7 R{0,8}
   + 7 R{0,9} + 7 R{0,10} + 7 R{0,11} + 7 R{0,12} + 7 R{0,13} + 7 R{0,14}
   + 7 R{0,15} + 7 R{0,16} + 7 R{0,17} + 7 R{0,18} <= 7
 R2_1: 10 R{3,1} + 10 R{3,2} + 10 R{3,3} + 10 R{3,4} + 10 R{3,5}
   + 10 R{3,6} + 10 R{3,10} + 10 R{3,12} + 10 R{3,13} + 10 R{3,16}
   + 10 R{3,17} + 10 R{6,6} + 10 R{6,7} + 10 R{6,20} <= 10
 R2_2: <= 0
 R2_3: 4 R{5,1} + 4 R{5,2} + 4 R{5,13} <= 4
 R2_4: <= 0
 R2_5: 5 R{5,1} + 5 R{5,2} + 5 R{5,13} <= 5
 R2_6: 10 R{1,13} + 10 R{1,16} + 10 R{3,6} + 10 R{3,12} + 10 R{3,17}
   + 10 R{6,1} + 10 R{6,2} + 10 R{6,3} + 10 R{6,4} + 10 R{6,9} + 10 R{6,10}
   + 10 R{6,11} + 10 R{6,13} + 10 R{6,14} + 10 R{6,15} <= 10
 R2_7: <= 0
 R2_8: <= 0
 R2_9: 12 R{4,1} + 12 R{4,2} + 12 R{4,3} + 12 R{4,4} + 12 R{4,5}
   + 12 R{4,6} + 12 R{4,7} + 12 R{4,9} + 12 R{4,10} + 12 R{4,11}
   + 12 R{4,12} + 12 R{4,13} + 12 R{4,14} + 12 R{4,15} + 12 R{4,16}
   + 12 R{4,17} + 12 R{4,18} + 12 R{4,19} + 12 R{4,20} + 12 R{4,21} <= 12
 R2_10: 8 R{6,1} + 8 R{6,2} + 8 R{6,3} + 8 R{6,5} + 8 R{6,8} + 8 R{6,9}
   + 8 R{6,11} + 8 R{6,13} + 8 R{6,14} <= 8
 R2_11: <= 0
 R2_12: <= 0
 R2_13: <= 0
 R2_14: <= 0
 R2_15: 11 R{0,0} + 11 R{0,1} + 11 R{0,2} + 11 R{0,6} + 11 R{0,8}
   + 11 R{0,9} + 11 R{0,10} + 11 R{0,11} + 11 R{0,13} + 11 R{0,16}
   + 11 R{0,18} + 11 R{4,1} + 11 R{4,2} + 11 R{4,3} + 11 R{4,4} + 11 R{4,8}
   + 11 R{4,9} + 11 R{4,15} + 11 R{4,17} <= 11
 R2_16: <= 0
 R2_17: 11 R{0,18} <= 11
 R2_18: <= 0
 R2_19: 11 R{0,6} + 11 R{0,8} + 11 R{0,10} + 11 R{1,4} + 11 R{1,6}
   + 11 R{1,15} + 11 R{4,1} + 11 R{4,2} + 11 R{4,3} + 8 R{4,4} + 8 R{4,5}
   + 8 R{4,7} + 11 R{4,9} + 11 R{4,11} + 11 R{4,12} + 11 R{4,21}
   + 10 R{5,3} + 10 R{5,4} + 10 R{5,5} <= 11
 R2_20: 13 R{0,5} + 13 R{1,7} + 13 R{1,12} + 13 R{2,3} + 13 R{2,4}
   + 13 R{3,1} + 13 R{3,2} + 13 R{3,3} + 13 R{3,5} + 13 R{3,7} + 13 R{3,9}
   + 13 R{3,13} + 13 R{3,15} + 13 R{3,16} + 13 R{5,2} <= 13
 R2_21: <= 0
 R2_22: 10 R{4,5} + 10 R{4,7} + 10 R{4,13} + 10 R{6,17} <= 10
 R2_23: 14 R{4,6} + 14 R{6,2} + 14 R{6,3} + 14 R{6,4} + 14 R{6,5}
   + 14 R{6,6} + 14 R{6,8} + 14 R{6,9} + 14 R{6,11} + 14 R{6,12}
   + 14 R{6,14} + 14 R{6,15} + 14 R{6,16} + 14 R{6,19} + 14 R{6,21} <= 14
 R2_24: 10 R{3,1} + 10 R{3,2} + 10 R{3,3} + 10 R{3,4} + 10 R{3,6}
   + 10 R{3,7} + 10 R{3,8} + 10 R{3,9} + 10 R{3,10} + 10 R{3,11}
   + 10 R{3,12} + 10 R{3,15} + 10 R{3,16} + 10 R{5,3} + 8 R{5,6}
   + 10 R{5,8} <= 10
 R2_25: 13 R{0,0} + 13 R{0,1} + 13 R{0,2} + 13 R{0,6} + 13 R{0,7}
   + 13 R{0,8} + 13 R{0,9} + 13 R{0,10} + 13 R{0,11} + 13 R{0,12}
   + 13 R{0,13} + 13 R{0,14} + 13 R{0,15} + 13 R{4,1} + 13 R{4,2}
   + 13 R{4,3} + 13 R{4,4} + 13 R{4,6} + 13 R{4,8} + 13 R{4,10}
   + 13 R{4,15} + 13 R{4,17} + 13 R{4,20} + 13 R{4,21} <= 13
 R2_26: 6 R{1,1} + 6 R{1,2} + 6 R{1,3} + 6 R{1,4} + 6 R{1,6} + 6 R{1,7}
   + 6 R{1,8} + 6 R{1,9} + 6 R{1,10} + 6 R{1,11} + 6 R{1,12} + 6 R{1,13}
   + 6 R{1,14} + 6 R{2,5} + 6 R{2,7} <= 6
 R2_27: 5 R{0,6} + 5 R{0,11} + 5 R{1,2} + 5 R{1,3} + 5 R{1,4} + 5 R{1,7}
   + 5 R{1,8} + 5 R{1,12} + 5 R{1,14} + 5 R{1,16} + 5 R{2,4} + 5 R{2,6}
   + 5 R{3,4} + 5 R{3,17} + 5 R{4,11} + 5 R{4,12} + 5 R{4,15} + 5 R{4,16}
   + 5 R{4,17} + 5 R{4,19} + 5 R{4,21} + 5 R{5,3} + 5 R{5,4} + 5 R{5,6}
   + 5 R{5,7} + 5 R{5,8} + 5 R{5,9} + 5 R{5,10} + 5 R{5,12} + 5 R{5,14}
   + 5 R{6,4} + 5 R{6,11} + 5 R{6,12} + 5 R{6,14} + 5 R{6,16} + 5 R{6,17}
   + 5 R{6,20} + 5 R{6,21} <= 5
 R2_28: <= 0
 R2_29: <= 0
 R2_30: <= 0
 R2_31: 6 R{6,1} + 6 R{6,2} + 6 R{6,8} + 6 R{6,10} <= 6
 R2_32: 7 R{0,4} + 7 R{0,5} + 7 R{1,15} + 7 R{5,10} <= 7
 R2_33: 12 R{0,16} + 12 R{3,6} + 12 R{3,10} + 12 R{3,12} + 12 R{3,17}
   + 12 R{4,19} <= 12
 R2_34: 5 R{0,0} + 5 R{0,1} + 5 R{0,2} + 5 R{0,6} + 5 R{0,7} + 5 R{0,8}
   + 5 R{0,9} + 5 R{0,10} + 5 R{0,11} + 5 R{0,12} + 5 R{0,13} + 5 R{0,14}
   + 5 R{0,15} + 5 R{0,16} + 5 R{0,17} + 5 R{0,18} + 5 R{4,14} <= 5
 R2_35: <= 0
 R2_36: 15 R{1,1} + 15 R{1,2} + 15 R{1,3} + 15 R{1,4} + 15 R{1,5}
   + 15 R{1,6} + 15 R{1,7} + 15 R{1,9} + 15 R{1,14} <= 16
 R2_37: 5 R{5,1} + 5 R{5,3} + 5 R{5,4} + 5 R{5,5} + 5 R{5,6} + 5 R{5,7}
   + 5 R{5,13} <= 5
 R2_38: <= 0
 R2_39: 15 R{0,0} + 15 R{0,1} + 15 R{0,2} + 15 R{0,6} + 15 R{0,8}
   + 15 R{0,9} + 15 R{0,11} + 15 R{0,13} + 15 R{0,18} <= 17
 R2_40: 15 R{2,1} + 15 R{2,2} + 15 R{2,3} + 15 R{2,5} + 15 R{2,7} <= 15
 R2_41: 5 R{0,0} + 5 R{0,1} + 5 R{0,2} + 5 R{0,7} + 5 R{0,13} + 5 R{0,17}
   + 5 R{0,18} + 5 R{3,2} + 5 R{3,3} + 5 R{3,5} + 5 R{3,16} + 5 R{4,7}
   + 5 R{4,9} + 5 R{4,11} + 5 R{4,12} + 5 R{4,13} + 5 R{4,14} + 5 R{4,16}
   + 5 R{4,18} + 5 R{6,5} + 5 R{6,7} + 5 R{6,9} + 5 R{6,15} + 5 R{6,16}
   + 5 R{6,18} + 5 R{6,19} + 5 R{6,20} + 5 R{6,21} <= 5
 R2_42: 4 R{2,1} + 4 R{2,2} + 4 R{2,3} + 4 R{2,5} + 4 R{2,7} <= 4
 R2_43: <= 0
 R2_44: <= 0
 R2_45: <= 0
 R2_46: 9 R{0,7} + 9 R{0,10} + 9 R{0,14} + 9 R{0,16} + 9 R{0,17}
   + 9 R{4,20} + 9 R{6,17} + 9 R{6,18} <= 9
 R2_47: 7 R{0,0} + 7 R{0,1} + 7 R{0,2} + 7 R{0,11} + 7 R{0,13} + 7 R{0,18}
   + 7 R{1,1} + 7 R{1,2} + 7 R{1,3} + 7 R{1,5} + 7 R{1,8} + 7 R{1,14} <= 7
 R2_48: 4 R{4,1} + 4 R{4,2} + 4 R{4,3} + 4 R{4,4} + 4 R{4,5} + 4 R{4,6}
   + 4 R{4,8} + 4 R{4,9} + 4 R{4,10} + 4 R{4,11} + 4 R{4,12} + 4 R{4,15}
   + 4 R{4,16} + 4 R{4,17} + 4 R{4,19} + 4 R{4,21} <= 4
 R2_49: <= 0
 R2_50: <= 0
 R2_51: 10 R{1,14} + 10 R{1,16} <= 11
 R2_52: 10 R{4,14} + 10 R{4,18} + 10 R{4,19} <= 10
 R2_53: 13 R{4,1} + 13 R{4,2} + 13 R{4,3} + 13 R{4,6} + 13 R{4,9}
   + 13 R{4,10} + 13 R{4,11} + 13 R{4,15} + 13 R{4,17} + 13 R{4,19}
   + 13 R{4,20} + 13 R{4,21} <= 13
 R2_54: 9 R{3,1} + 9 R{3,2} + 9 R{3,3} + 9 R{3,4} + 9 R{3,5} + 9 R{3,7}
   + 9 R{3,8} + 9 R{3,9} + 9 R{3,13} + 9 R{3,15} + 9 R{3,16} <= 9
 R2_55: <= 0
 R2_56: 6 R{0,1} + 6 R{0,2} + 6 R{0,18} + 6 R{3,2} + 6 R{3,3} + 6 R{3,4}
   + 6 R{3,5} + 6 R{3,7} + 6 R{3,8} + 6 R{3,9} + 6 R{3,13} + 6 R{4,4}
   + 6 R{4,5} + 6 R{4,8} + 6 R{6,2} + 6 R{6,3} + 6 R{6,5} + 6 R{6,8}
   + 6 R{6,10} <= 6
 R2_57: <= 0
 R2_58: <= 0
 R2_59: 10 R{3,6} + 10 R{3,8} + 10 R{3,10} + 10 R{3,11} + 10 R{3,12}
   + 10 R{3,13} + 10 R{3,14} + 10 R{3,17} + 10 R{6,17} <= 10
 R2_60: <= 0
 R2_61: 9 R{3,6} + 9 R{3,10} + 9 R{3,11} + 9 R{3,12} + 9 R{3,14}
   + 9 R{3,16} + 9 R{3,17} + 9 R{4,8} + 9 R{6,17} <= 9
 R2_62: <= 0
 R2_63: <= 0
 R2_64: <= 0
 R2_65: 5 R{3,5} + 5 R{3,15} + 5 R{6,1} + 5 R{6,2} + 5 R{6,3} + 5 R{6,4}
   + 5 R{6,5} + 5 R{6,6} + 5 R{6,7} + 5 R{6,8} + 5 R{6,9} + 5 R{6,11}
   + 5 R{6,12} + 5 R{6,13} + 5 R{6,14} + 5 R{6,15} + 5 R{6,16} + 5 R{6,18}
   + 5 R{6,19} + 5 R{6,20} + 5 R{6,21} <= 5
 R2_66: 7 R{3,6} + 7 R{3,10} + 7 R{3,12} + 7 R{5,4} + 7 R{5,10} <= 7
 R2_67: 3 R{0,8} + 3 R{0,12} + 3 R{0,13} + 3 R{0,17} + 3 R{3,2} + 3 R{3,3}
   + 3 R{3,4} + 3 R{3,7} + 3 R{3,8} + 3 R{3,9} + 3 R{3,11} + 3 R{3,13}
   + 3 R{3,15} + 3 R{3,16} + 3 R{6,4} + 3 R{6,6} + 3 R{6,7} + 3 R{6,10}
   + 3 R{6,12} + 3 R{6,15} + 3 R{6,16} + 3 R{6,18} + 3 R{6,19} + 3 R{6,20}
   + 3 R{6,21} <= 3
 R2_68: 6 R{4,1} + 6 R{4,3} + 6 R{4,9} + 6 R{4,10} + 6 R{4,11} + 6 R{4,12}
   + 6 R{4,15} + 6 R{4,19} <= 6
 R2_69: 7 R{0,0} + 7 R{0,1} + 7 R{0,2} + 7 R{0,6} + 7 R{0,8} + 7 R{0,9}
   + 7 R{0,10} + 7 R{0,12} + 7 R{0,13} + 7 R{0,15} + 7 R{0,18} + 7 R{1,6}
   + 7 R{4,1} + 7 R{4,2} + 7 R{4,3} + 7 R{4,4} + 7 R{4,5} + 7 R{4,7}
   + 7 R{4,8} + 7 R{4,9} + 7 R{4,10} + 7 R{4,13} + 7 R{5,5} + 7 R{5,7}
   <= 7
 R2_70: 11 R{6,1} + 11 R{6,2} + 11 R{6,3} + 11 R{6,4} + 11 R{6,6}
   + 11 R{6,8} + 11 R{6,10} + 11 R{6,13} + 11 R{6,14} <= 11
 R2_71: 7 R{0,14} + 7 R{3,1} + 7 R{3,2} + 7 R{3,3} + 7 R{3,5} + 7 R{3,7}
   + 7 R{3,8} + 7 R{3,9} + 7 R{3,13} + 7 R{3,15} + 7 R{5,6} + 7 R{6,2}
   + 7 R{6,3} + 7 R{6,5} + 7 R{6,8} + 7 R{6,9} + 7 R{6,10} + 7 R{6,11}
   + 7 R{6,12} + 7 R{6,14} + 7 R{6,15} + 7 R{6,18} <= 7
 R2_72: <= 0
 R2_73: 11 R{0,0} + 11 R{0,1} + 11 R{0,2} + 11 R{0,6} + 11 R{0,7}
   + 11 R{0,9} + 11 R{0,10} + 11 R{0,11} + 11 R{0,14} + 11 R{0,15}
   + 11 R{0,16} + 11 R{0,18} <= 11
 R2_74: 5 R{5,1} + 5 R{5,2} + 5 R{5,3} + 5 R{5,13} <= 5
 R2_75: 8 R{6,1} + 8 R{6,2} + 8 R{6,3} + 8 R{6,4} + 8 R{6,5} + 8 R{6,6}
   + 8 R{6,7} + 8 R{6,8} + 8 R{6,9} + 8 R{6,10} + 8 R{6,11} + 8 R{6,12}
   + 8 R{6,13} + 8 R{6,14} + 8 R{6,19} + 8 R{6,20} <= 8
 R2_76: 12 R{0,4} + 12 R{1,5} + 12 R{1,8} + 12 R{1,10} + 12 R{1,11}
   + 12 R{3,3} + 12 R{3,5} + 12 R{3,7} + 12 R{3,13} + 12 R{3,15}
   + 12 R{3,16} <= 12
 R2_77: 7 R{0,1} + 7 R{0,2} + 7 R{0,9} + 7 R{0,12} + 7 R{0,14} + 7 R{0,15}
   + 7 R{1,2} + 7 R{1,3} + 7 R{1,4} + 7 R{1,9} + 7 R{1,10} + 7 R{2,2}
   + 7 R{2,3} + 7 R{2,5} + 7 R{3,14} + 7 R{4,2} + 7 R{4,4} + 7 R{4,5}
   + 7 R{4,7} + 7 R{4,16} + 7 R{4,21} + 7 R{5,11} + 7 R{6,3} + 7 R{6,4}
   + 7 R{6,6} + 7 R{6,7} + 7 R{6,9} + 7 R{6,11} + 7 R{6,12} + 7 R{6,13}
   + 7 R{6,14} + 7 R{6,15} + 7 R{6,16} + 7 R{6,18} + 7 R{6,19} + 7 R{6,20}
   <= 7
Bounds
End
